NAME : portcgen-20-27
COMMENT : portcgen N=20, seed=27
TYPE : TSP
DIMENSION : 20
EDGE_WEIGHT_TYPE : EUC_2D
NODE_COORD_SECTION
1 -8276 431668
2 19298 -76813
3 -53383 256815
4 136774 224179
5 -65051 129619
6 -18800 -107768
7 -284647 130137
8 -40445 245441
9 79300 140617
10 -17373 117337
11 -206597 -294672
12 -294155 -299965
13 44671 -56856
14 53499 -244656
15 -128906 128223
16 229553 -136325
17 296061 178159
18 225342 -193249
19 77697 280854
20 -292380 239817
